\ This file has been generated by DOcplex
\ ENCODING=ISO-8859-1
\Problem name: random_problem.lp

Minimize
 obj: - 840 x0 - 420 x1 - 210 x2 - 680 x3 - 340 x4 - 170 x5 - 916 x6 - 458 x7
      - 229 x8 - 176 x9 - 88 x10 - 44 x11 + 516 x12 + 258 x13 + 129 x14
      - 104 x15 - 52 x16 - 26 x17 + [ 3008 x0^2 + 3008 x0*x1 + 1504 x0*x2
      + 512 x0*x3 + 256 x0*x4 + 128 x0*x5 - 896 x0*x6 - 448 x0*x7 - 224 x0*x8
      + 1920 x0*x9 + 960 x0*x10 + 480 x0*x11 + 3840 x0*x12 + 1920 x0*x13
      + 960 x0*x14 + 768 x0*x15 + 384 x0*x16 + 192 x0*x17 + 752 x1^2 + 752 x1*x2
      + 256 x1*x3 + 128 x1*x4 + 64 x1*x5 - 448 x1*x6 - 224 x1*x7 - 112 x1*x8
      + 960 x1*x9 + 480 x1*x10 + 240 x1*x11 + 1920 x1*x12 + 960 x1*x13
      + 480 x1*x14 + 384 x1*x15 + 192 x1*x16 + 96 x1*x17 + 188 x2^2 + 128 x2*x3
      + 64 x2*x4 + 32 x2*x5 - 224 x2*x6 - 112 x2*x7 - 56 x2*x8 + 480 x2*x9
      + 240 x2*x10 + 120 x2*x11 + 960 x2*x12 + 480 x2*x13 + 240 x2*x14
      + 192 x2*x15 + 96 x2*x16 + 48 x2*x17 + 4224 x3^2 + 4224 x3*x4 + 2112 x3*x5
      + 2688 x3*x6 + 1344 x3*x7 + 672 x3*x8 + 2304 x3*x9 + 1152 x3*x10
      + 576 x3*x11 + 4096 x3*x12 + 2048 x3*x13 + 1024 x3*x14 + 768 x3*x15
      + 384 x3*x16 + 192 x3*x17 + 1056 x4^2 + 1056 x4*x5 + 1344 x4*x6
      + 672 x4*x7 + 336 x4*x8 + 1152 x4*x9 + 576 x4*x10 + 288 x4*x11
      + 2048 x4*x12 + 1024 x4*x13 + 512 x4*x14 + 384 x4*x15 + 192 x4*x16
      + 96 x4*x17 + 264 x5^2 + 672 x5*x6 + 336 x5*x7 + 168 x5*x8 + 576 x5*x9
      + 288 x5*x10 + 144 x5*x11 + 1024 x5*x12 + 512 x5*x13 + 256 x5*x14
      + 192 x5*x15 + 96 x5*x16 + 48 x5*x17 + 6528 x6^2 + 6528 x6*x7 + 3264 x6*x8
      + 4480 x6*x9 + 2240 x6*x10 + 1120 x6*x11 + 3328 x6*x12 + 1664 x6*x13
      + 832 x6*x14 + 2560 x6*x15 + 1280 x6*x16 + 640 x6*x17 + 1632 x7^2
      + 1632 x7*x8 + 2240 x7*x9 + 1120 x7*x10 + 560 x7*x11 + 1664 x7*x12
      + 832 x7*x13 + 416 x7*x14 + 1280 x7*x15 + 640 x7*x16 + 320 x7*x17
      + 408 x8^2 + 1120 x8*x9 + 560 x8*x10 + 280 x8*x11 + 832 x8*x12
      + 416 x8*x13 + 208 x8*x14 + 640 x8*x15 + 320 x8*x16 + 160 x8*x17
      + 3776 x9^2 + 3776 x9*x10 + 1888 x9*x11 + 6144 x9*x12 + 3072 x9*x13
      + 1536 x9*x14 + 2176 x9*x15 + 1088 x9*x16 + 544 x9*x17 + 944 x10^2
      + 944 x10*x11 + 3072 x10*x12 + 1536 x10*x13 + 768 x10*x14 + 1088 x10*x15
      + 544 x10*x16 + 272 x10*x17 + 236 x11^2 + 1536 x11*x12 + 768 x11*x13
      + 384 x11*x14 + 544 x11*x15 + 272 x11*x16 + 136 x11*x17 + 15552 x12^2
      + 15552 x12*x13 + 7776 x12*x14 + 4352 x12*x15 + 2176 x12*x16
      + 1088 x12*x17 + 3888 x13^2 + 3888 x13*x14 + 2176 x13*x15 + 1088 x13*x16
      + 544 x13*x17 + 972 x14^2 + 1088 x14*x15 + 544 x14*x16 + 272 x14*x17
      + 3008 x15^2 + 3008 x15*x16 + 1504 x15*x17 + 752 x16^2 + 752 x16*x17
      + 188 x17^2 ]/2
Subject To
 c0: 4 x0 + 2 x1 + x2 + 4 x3 + 2 x4 + x5 + 4 x6 + 2 x7 + x8 + 4 x9 + 2 x10 + x11
     + 4 x12 + 2 x13 + x14 + 4 x15 + 2 x16 + x17 = 7

Bounds
 0 <= x0 <= 1
 0 <= x1 <= 1
 0 <= x2 <= 1
 0 <= x3 <= 1
 0 <= x4 <= 1
 0 <= x5 <= 1
 0 <= x6 <= 1
 0 <= x7 <= 1
 0 <= x8 <= 1
 0 <= x9 <= 1
 0 <= x10 <= 1
 0 <= x11 <= 1
 0 <= x12 <= 1
 0 <= x13 <= 1
 0 <= x14 <= 1
 0 <= x15 <= 1
 0 <= x16 <= 1
 0 <= x17 <= 1

Binaries
 x0 x1 x2 x3 x4 x5 x6 x7 x8 x9 x10 x11 x12 x13 x14 x15 x16 x17
End
